c CNF-Signature NOR_11
c 
c $p 11 1
c $m (1,2,3,4,5,6,7,8,9,10,11,12)
c $i 1
c $i 2
c $i 3
c $i 4
c $i 5
c $i 6
c $i 7
c $i 8
c $i 9
c $i 10
c $i 11
c $o 12
p cnf 12 12
-1 -12 0
-2 -12 0
-3 -12 0
-4 -12 0
-5 -12 0
-6 -12 0
-7 -12 0
-8 -12 0
-9 -12 0
-10 -12 0
-11 -12 0
1 2 3 4 5 6 7 8 9 10 11 12 0
